NAME : XML100_3316_26
DIMENSION : 101
NB_CLUSTERS : 6
CLUSTERING_ALG : KMeans
CLUSTERING_PARAMS : k(5)
CLUSTERS
1 0
2 11 14 17 20 24 29 33 35 37 42 45 51 53 55 61 62 63 64 65 76 77 85 86 90 93 100
3 4 6 28 31 60 82 83 88 94 96 98
4 5 8 13 16 19 22 26 34 36 44 54 68 70 72 73 74 75 87 89
5 1 2 39 46 47 49 69 80 97
6 3 7 9 10 12 15 18 21 23 25 27 30 32 38 40 41 43 48 50 52 56 57 58 59 66 67 71 78 79 81 84 91 92 95 99
EOF